(set-logic ALL)
(set-option :produce-models true)
(declare-sort BoundSet 0)
(declare-sort UnboundSet 0)
(set-option :finite-model-find true)
(declare-fun IsSweeping (BoundSet) Bool)
(declare-fun IsRed (BoundSet) Bool)
(declare-fun IsDancing (BoundSet) Bool)
(declare-fun IsWith (BoundSet BoundSet) Bool)
(assert (not (=> (exists ((a BoundSet)) (exists ((b BoundSet)) (and (IsSweeping a) (IsRed b)))) (exists ((c BoundSet)) (exists ((a BoundSet)) (and (IsDancing a) (IsWith a c)))))))
(check-sat)
(get-model)